#************************************************************************************
#*                   Generated by cif2cell 1.1.5 2016-09-27 20:40                   *
#*  T. Bjorkman, Comp. Phys. Commun. 182, 1183-1186 (2011). Please cite generously. *
#*                                                                                  *
#*                Data obtained from ICSD. Reference number : 100633                *
#*                            Na Cl   (Sodium chloride)                             *
#*       Finger, L.W. and King, H., American Mineralogist 63, 337-342 (1978)        *
#************************************************************************************

%BLOCK LATTICE_CART
  10.906599999999999  10.906599999999999   0.000000000000000
  10.906599999999999   0.000000000000000  10.906599999999999
   0.000000000000000  10.906599999999999  10.906599999999999
%ENDBLOCK LATTICE_CART

%BLOCK POSITIONS_FRAC
Cl   0.125000000000000   0.125000000000000   0.125000000000000 
Cl   0.875000000000000   0.125000000000000   0.375000000000000 
Cl   0.875000000000000   0.375000000000000   0.125000000000000 
Cl   0.625000000000000   0.375000000000000   0.625000000000000 
Cl   0.625000000000000   0.625000000000000   0.125000000000000 
Cl   0.625000000000000   0.375000000000000   0.375000000000000 
Cl   0.625000000000000   0.125000000000000   0.875000000000000 
Cl   0.375000000000000   0.875000000000000   0.875000000000000 
Cl   0.125000000000000   0.125000000000000   0.875000000000000 
Cl   0.375000000000000   0.125000000000000   0.625000000000000 
Cl   0.125000000000000   0.375000000000000   0.625000000000000 
Cl   0.875000000000000   0.375000000000000   0.875000000000000 
Cl   0.125000000000000   0.625000000000000   0.375000000000000 
Cl   0.875000000000000   0.625000000000000   0.625000000000000 
Cl   0.125000000000000   0.875000000000000   0.125000000000000 
Cl   0.875000000000000   0.875000000000000   0.375000000000000 
Cl   0.375000000000000   0.625000000000000   0.125000000000000 
Cl   0.625000000000000   0.375000000000000   0.125000000000000 
Cl   0.875000000000000   0.125000000000000   0.125000000000000 
Cl   0.625000000000000   0.875000000000000   0.625000000000000 
Cl   0.375000000000000   0.375000000000000   0.375000000000000 
Cl   0.125000000000000   0.875000000000000   0.875000000000000 
Cl   0.375000000000000   0.625000000000000   0.875000000000000 
Cl   0.625000000000000   0.625000000000000   0.375000000000000 
Cl   0.375000000000000   0.875000000000000   0.625000000000000 
Cl   0.125000000000000   0.125000000000000   0.625000000000000 
Cl   0.875000000000000   0.125000000000000   0.875000000000000 
Cl   0.125000000000000   0.375000000000000   0.375000000000000 
Cl   0.875000000000000   0.375000000000000   0.625000000000000 
Cl   0.125000000000000   0.625000000000000   0.125000000000000 
Cl   0.625000000000000   0.875000000000000   0.875000000000000 
Cl   0.875000000000000   0.625000000000000   0.375000000000000 
Cl   0.375000000000000   0.375000000000000   0.125000000000000 
Cl   0.875000000000000   0.875000000000000   0.125000000000000 
Cl   0.625000000000000   0.125000000000000   0.125000000000000 
Cl   0.375000000000000   0.125000000000000   0.875000000000000 
Cl   0.625000000000000   0.875000000000000   0.125000000000000 
Cl   0.625000000000000   0.625000000000000   0.875000000000000 
Cl   0.625000000000000   0.375000000000000   0.875000000000000 
Cl   0.125000000000000   0.625000000000000   0.875000000000000 
Cl   0.625000000000000   0.125000000000000   0.375000000000000 
Cl   0.125000000000000   0.875000000000000   0.625000000000000 
Cl   0.875000000000000   0.875000000000000   0.875000000000000 
Cl   0.375000000000000   0.625000000000000   0.625000000000000 
Cl   0.375000000000000   0.375000000000000   0.875000000000000 
Cl   0.375000000000000   0.875000000000000   0.375000000000000 
Cl   0.125000000000000   0.125000000000000   0.375000000000000 
Cl   0.625000000000000   0.625000000000000   0.625000000000000 
Cl   0.875000000000000   0.125000000000000   0.625000000000000 
Cl   0.125000000000000   0.375000000000000   0.125000000000000 
Cl   0.875000000000000   0.375000000000000   0.375000000000000 
Cl   0.375000000000000   0.125000000000000   0.125000000000000 
Cl   0.375000000000000   0.375000000000000   0.625000000000000 
Cl   0.875000000000000   0.625000000000000   0.125000000000000 
Cl   0.625000000000000   0.125000000000000   0.625000000000000 
Cl   0.625000000000000   0.875000000000000   0.375000000000000 
Cl   0.125000000000000   0.375000000000000   0.875000000000000 
Cl   0.375000000000000   0.125000000000000   0.375000000000000 
Cl   0.125000000000000   0.625000000000000   0.625000000000000 
Cl   0.875000000000000   0.625000000000000   0.875000000000000 
Cl   0.125000000000000   0.875000000000000   0.375000000000000 
Cl   0.875000000000000   0.875000000000000   0.625000000000000 
Cl   0.375000000000000   0.625000000000000   0.375000000000000 
Cl   0.375000000000000   0.875000000000000   0.125000000000000 
Na   0.000000000000000   0.000000000000000   0.000000000000000 
Na   0.750000000000000   0.000000000000000   0.250000000000000 
Na   0.750000000000000   0.250000000000000   0.000000000000000 
Na   0.500000000000000   0.250000000000000   0.500000000000000 
Na   0.500000000000000   0.500000000000000   0.000000000000000 
Na   0.500000000000000   0.250000000000000   0.250000000000000 
Na   0.500000000000000   0.000000000000000   0.750000000000000 
Na   0.250000000000000   0.750000000000000   0.750000000000000 
Na   0.000000000000000   0.000000000000000   0.750000000000000 
Na   0.250000000000000   0.000000000000000   0.500000000000000 
Na   0.000000000000000   0.250000000000000   0.500000000000000 
Na   0.750000000000000   0.250000000000000   0.750000000000000 
Na   0.000000000000000   0.500000000000000   0.250000000000000 
Na   0.750000000000000   0.500000000000000   0.500000000000000 
Na   0.000000000000000   0.750000000000000   0.000000000000000 
Na   0.750000000000000   0.750000000000000   0.250000000000000 
Na   0.250000000000000   0.500000000000000   0.000000000000000 
Na   0.500000000000000   0.250000000000000   0.000000000000000 
Na   0.750000000000000   0.000000000000000   0.000000000000000 
Na   0.500000000000000   0.750000000000000   0.500000000000000 
Na   0.250000000000000   0.250000000000000   0.250000000000000 
Na   0.000000000000000   0.750000000000000   0.750000000000000 
Na   0.250000000000000   0.500000000000000   0.750000000000000 
Na   0.500000000000000   0.500000000000000   0.250000000000000 
Na   0.250000000000000   0.750000000000000   0.500000000000000 
Na   0.000000000000000   0.000000000000000   0.500000000000000 
Na   0.750000000000000   0.000000000000000   0.750000000000000 
Na   0.000000000000000   0.250000000000000   0.250000000000000 
Na   0.750000000000000   0.250000000000000   0.500000000000000 
Na   0.000000000000000   0.500000000000000   0.000000000000000 
Na   0.500000000000000   0.750000000000000   0.750000000000000 
Na   0.750000000000000   0.500000000000000   0.250000000000000 
Na   0.250000000000000   0.250000000000000   0.000000000000000 
Na   0.750000000000000   0.750000000000000   0.000000000000000 
Na   0.500000000000000   0.000000000000000   0.000000000000000 
Na   0.250000000000000   0.000000000000000   0.750000000000000 
Na   0.500000000000000   0.750000000000000   0.000000000000000 
Na   0.500000000000000   0.500000000000000   0.750000000000000 
Na   0.500000000000000   0.250000000000000   0.750000000000000 
Na   0.000000000000000   0.500000000000000   0.750000000000000 
Na   0.500000000000000   0.000000000000000   0.250000000000000 
Na   0.000000000000000   0.750000000000000   0.500000000000000 
Na   0.750000000000000   0.750000000000000   0.750000000000000 
Na   0.250000000000000   0.500000000000000   0.500000000000000 
Na   0.250000000000000   0.250000000000000   0.750000000000000 
Na   0.250000000000000   0.750000000000000   0.250000000000000 
Na   0.000000000000000   0.000000000000000   0.250000000000000 
Na   0.500000000000000   0.500000000000000   0.500000000000000 
Na   0.750000000000000   0.000000000000000   0.500000000000000 
Na   0.000000000000000   0.250000000000000   0.000000000000000 
Na   0.750000000000000   0.250000000000000   0.250000000000000 
Na   0.250000000000000   0.000000000000000   0.000000000000000 
Na   0.250000000000000   0.250000000000000   0.500000000000000 
Na   0.750000000000000   0.500000000000000   0.000000000000000 
Na   0.500000000000000   0.000000000000000   0.500000000000000 
Na   0.500000000000000   0.750000000000000   0.250000000000000 
Na   0.000000000000000   0.250000000000000   0.750000000000000 
Na   0.250000000000000   0.000000000000000   0.250000000000000 
Na   0.000000000000000   0.500000000000000   0.500000000000000 
Na   0.750000000000000   0.500000000000000   0.750000000000000 
Na   0.000000000000000   0.750000000000000   0.250000000000000 
Na   0.750000000000000   0.750000000000000   0.500000000000000 
Na   0.250000000000000   0.500000000000000   0.250000000000000 
Na   0.250000000000000   0.750000000000000   0.000000000000000 
%ENDBLOCK POSITIONS_FRAC
