%block LATTICE_CART
5.4533000 0.0000000 0.0000000
0.0000000 5.4533000 0.0000000
0.0000000 0.0000000 5.4533000
%endblock LATTICE_CART

%block POSITIONS_FRAC
 Cl 0.500000000 0.000000000 0.000000000
 Na 0.000000000 0.000000000 0.000000000
 Cl 0.000000000 0.500000000 0.000000000
 Na 0.500000000 0.500000000 0.000000000
 Cl 0.000000000 0.000000000 0.500000000
 Na 0.000000000 0.500000000 0.500000000
 Cl 0.500000000 0.500000000 0.500000000
 Na 0.500000000 0.000000000 0.500000000
%endblock POSITIONS_FRAC
